(set-logic QF_LRA)
(declare-fun X0 () Real )
(declare-fun Y0 () Real )
(declare-fun X1 () Real )
(declare-fun Y1 () Real )
(declare-fun X2 () Real )
(declare-fun Y2 () Real )
(declare-fun X3 () Real )
(declare-fun Y3 () Real )
(declare-fun X4 () Real )
(declare-fun Y4 () Real )
(declare-fun X5 () Real )
(declare-fun Y5 () Real )
(declare-fun X6 () Real )
(declare-fun Y6 () Real )
(declare-fun X7 () Real )
(declare-fun Y7 () Real )
(declare-fun X8 () Real )
(declare-fun Y8 () Real )
(declare-fun X9 () Real )
(declare-fun Y9 () Real )
(declare-fun X10 () Real )
(declare-fun Y10 () Real )
(declare-fun X11 () Real )
(declare-fun Y11 () Real )
(declare-fun X12 () Real )
(declare-fun Y12 () Real )
(declare-fun X13 () Real )
(declare-fun Y13 () Real )
(declare-fun X14 () Real )
(declare-fun Y14 () Real )
(declare-fun Z () Real )
(assert ( and  
( or ( <= ( + X0 74 ) X1 )  ( <= ( + X1 5 ) X0 )  ( <= ( + Y0 44 ) Y1 )  ( <= ( + Y1 19 ) Y0 )  )
( or ( <= ( + X0 74 ) X2 )  ( <= ( + X2 7 ) X0 )  ( <= ( + Y0 44 ) Y2 )  ( <= ( + Y2 49 ) Y0 )  )
( or ( <= ( + X0 74 ) X3 )  ( <= ( + X3 72 ) X0 )  ( <= ( + Y0 44 ) Y3 )  ( <= ( + Y3 71 ) Y0 )  )
( or ( <= ( + X0 74 ) X4 )  ( <= ( + X4 52 ) X0 )  ( <= ( + Y0 44 ) Y4 )  ( <= ( + Y4 22 ) Y0 )  )
( or ( <= ( + X0 74 ) X5 )  ( <= ( + X5 28 ) X0 )  ( <= ( + Y0 44 ) Y5 )  ( <= ( + Y5 49 ) Y0 )  )
( or ( <= ( + X0 74 ) X6 )  ( <= ( + X6 87 ) X0 )  ( <= ( + Y0 44 ) Y6 )  ( <= ( + Y6 31 ) Y0 )  )
( or ( <= ( + X0 74 ) X7 )  ( <= ( + X7 7 ) X0 )  ( <= ( + Y0 44 ) Y7 )  ( <= ( + Y7 44 ) Y0 )  )
( or ( <= ( + X0 74 ) X8 )  ( <= ( + X8 70 ) X0 )  ( <= ( + Y0 44 ) Y8 )  ( <= ( + Y8 68 ) Y0 )  )
( or ( <= ( + X0 74 ) X9 )  ( <= ( + X9 80 ) X0 )  ( <= ( + Y0 44 ) Y9 )  ( <= ( + Y9 48 ) Y0 )  )
( or ( <= ( + X0 74 ) X10 )  ( <= ( + X10 24 ) X0 )  ( <= ( + Y0 44 ) Y10 )  ( <= ( + Y10 41 ) Y0 )  )
( or ( <= ( + X0 74 ) X11 )  ( <= ( + X11 20 ) X0 )  ( <= ( + Y0 44 ) Y11 )  ( <= ( + Y11 85 ) Y0 )  )
( or ( <= ( + X0 74 ) X12 )  ( <= ( + X12 26 ) X0 )  ( <= ( + Y0 44 ) Y12 )  ( <= ( + Y12 9 ) Y0 )  )
( or ( <= ( + X0 74 ) X13 )  ( <= ( + X13 78 ) X0 )  ( <= ( + Y0 44 ) Y13 )  ( <= ( + Y13 9 ) Y0 )  )
( or ( <= ( + X0 74 ) X14 )  ( <= ( + X14 50 ) X0 )  ( <= ( + Y0 44 ) Y14 )  ( <= ( + Y14 23 ) Y0 )  )
( or ( <= ( + X1 5 ) X2 )  ( <= ( + X2 7 ) X1 )  ( <= ( + Y1 19 ) Y2 )  ( <= ( + Y2 49 ) Y1 )  )
( or ( <= ( + X1 5 ) X3 )  ( <= ( + X3 72 ) X1 )  ( <= ( + Y1 19 ) Y3 )  ( <= ( + Y3 71 ) Y1 )  )
( or ( <= ( + X1 5 ) X4 )  ( <= ( + X4 52 ) X1 )  ( <= ( + Y1 19 ) Y4 )  ( <= ( + Y4 22 ) Y1 )  )
( or ( <= ( + X1 5 ) X5 )  ( <= ( + X5 28 ) X1 )  ( <= ( + Y1 19 ) Y5 )  ( <= ( + Y5 49 ) Y1 )  )
( or ( <= ( + X1 5 ) X6 )  ( <= ( + X6 87 ) X1 )  ( <= ( + Y1 19 ) Y6 )  ( <= ( + Y6 31 ) Y1 )  )
( or ( <= ( + X1 5 ) X7 )  ( <= ( + X7 7 ) X1 )  ( <= ( + Y1 19 ) Y7 )  ( <= ( + Y7 44 ) Y1 )  )
( or ( <= ( + X1 5 ) X8 )  ( <= ( + X8 70 ) X1 )  ( <= ( + Y1 19 ) Y8 )  ( <= ( + Y8 68 ) Y1 )  )
( or ( <= ( + X1 5 ) X9 )  ( <= ( + X9 80 ) X1 )  ( <= ( + Y1 19 ) Y9 )  ( <= ( + Y9 48 ) Y1 )  )
( or ( <= ( + X1 5 ) X10 )  ( <= ( + X10 24 ) X1 )  ( <= ( + Y1 19 ) Y10 )  ( <= ( + Y10 41 ) Y1 )  )
( or ( <= ( + X1 5 ) X11 )  ( <= ( + X11 20 ) X1 )  ( <= ( + Y1 19 ) Y11 )  ( <= ( + Y11 85 ) Y1 )  )
( or ( <= ( + X1 5 ) X12 )  ( <= ( + X12 26 ) X1 )  ( <= ( + Y1 19 ) Y12 )  ( <= ( + Y12 9 ) Y1 )  )
( or ( <= ( + X1 5 ) X13 )  ( <= ( + X13 78 ) X1 )  ( <= ( + Y1 19 ) Y13 )  ( <= ( + Y13 9 ) Y1 )  )
( or ( <= ( + X1 5 ) X14 )  ( <= ( + X14 50 ) X1 )  ( <= ( + Y1 19 ) Y14 )  ( <= ( + Y14 23 ) Y1 )  )
( or ( <= ( + X2 7 ) X3 )  ( <= ( + X3 72 ) X2 )  ( <= ( + Y2 49 ) Y3 )  ( <= ( + Y3 71 ) Y2 )  )
( or ( <= ( + X2 7 ) X4 )  ( <= ( + X4 52 ) X2 )  ( <= ( + Y2 49 ) Y4 )  ( <= ( + Y4 22 ) Y2 )  )
( or ( <= ( + X2 7 ) X5 )  ( <= ( + X5 28 ) X2 )  ( <= ( + Y2 49 ) Y5 )  ( <= ( + Y5 49 ) Y2 )  )
( or ( <= ( + X2 7 ) X6 )  ( <= ( + X6 87 ) X2 )  ( <= ( + Y2 49 ) Y6 )  ( <= ( + Y6 31 ) Y2 )  )
( or ( <= ( + X2 7 ) X7 )  ( <= ( + X7 7 ) X2 )  ( <= ( + Y2 49 ) Y7 )  ( <= ( + Y7 44 ) Y2 )  )
( or ( <= ( + X2 7 ) X8 )  ( <= ( + X8 70 ) X2 )  ( <= ( + Y2 49 ) Y8 )  ( <= ( + Y8 68 ) Y2 )  )
( or ( <= ( + X2 7 ) X9 )  ( <= ( + X9 80 ) X2 )  ( <= ( + Y2 49 ) Y9 )  ( <= ( + Y9 48 ) Y2 )  )
( or ( <= ( + X2 7 ) X10 )  ( <= ( + X10 24 ) X2 )  ( <= ( + Y2 49 ) Y10 )  ( <= ( + Y10 41 ) Y2 )  )
( or ( <= ( + X2 7 ) X11 )  ( <= ( + X11 20 ) X2 )  ( <= ( + Y2 49 ) Y11 )  ( <= ( + Y11 85 ) Y2 )  )
( or ( <= ( + X2 7 ) X12 )  ( <= ( + X12 26 ) X2 )  ( <= ( + Y2 49 ) Y12 )  ( <= ( + Y12 9 ) Y2 )  )
( or ( <= ( + X2 7 ) X13 )  ( <= ( + X13 78 ) X2 )  ( <= ( + Y2 49 ) Y13 )  ( <= ( + Y13 9 ) Y2 )  )
( or ( <= ( + X2 7 ) X14 )  ( <= ( + X14 50 ) X2 )  ( <= ( + Y2 49 ) Y14 )  ( <= ( + Y14 23 ) Y2 )  )
( or ( <= ( + X3 72 ) X4 )  ( <= ( + X4 52 ) X3 )  ( <= ( + Y3 71 ) Y4 )  ( <= ( + Y4 22 ) Y3 )  )
( or ( <= ( + X3 72 ) X5 )  ( <= ( + X5 28 ) X3 )  ( <= ( + Y3 71 ) Y5 )  ( <= ( + Y5 49 ) Y3 )  )
( or ( <= ( + X3 72 ) X6 )  ( <= ( + X6 87 ) X3 )  ( <= ( + Y3 71 ) Y6 )  ( <= ( + Y6 31 ) Y3 )  )
( or ( <= ( + X3 72 ) X7 )  ( <= ( + X7 7 ) X3 )  ( <= ( + Y3 71 ) Y7 )  ( <= ( + Y7 44 ) Y3 )  )
( or ( <= ( + X3 72 ) X8 )  ( <= ( + X8 70 ) X3 )  ( <= ( + Y3 71 ) Y8 )  ( <= ( + Y8 68 ) Y3 )  )
( or ( <= ( + X3 72 ) X9 )  ( <= ( + X9 80 ) X3 )  ( <= ( + Y3 71 ) Y9 )  ( <= ( + Y9 48 ) Y3 )  )
( or ( <= ( + X3 72 ) X10 )  ( <= ( + X10 24 ) X3 )  ( <= ( + Y3 71 ) Y10 )  ( <= ( + Y10 41 ) Y3 )  )
( or ( <= ( + X3 72 ) X11 )  ( <= ( + X11 20 ) X3 )  ( <= ( + Y3 71 ) Y11 )  ( <= ( + Y11 85 ) Y3 )  )
( or ( <= ( + X3 72 ) X12 )  ( <= ( + X12 26 ) X3 )  ( <= ( + Y3 71 ) Y12 )  ( <= ( + Y12 9 ) Y3 )  )
( or ( <= ( + X3 72 ) X13 )  ( <= ( + X13 78 ) X3 )  ( <= ( + Y3 71 ) Y13 )  ( <= ( + Y13 9 ) Y3 )  )
( or ( <= ( + X3 72 ) X14 )  ( <= ( + X14 50 ) X3 )  ( <= ( + Y3 71 ) Y14 )  ( <= ( + Y14 23 ) Y3 )  )
( or ( <= ( + X4 52 ) X5 )  ( <= ( + X5 28 ) X4 )  ( <= ( + Y4 22 ) Y5 )  ( <= ( + Y5 49 ) Y4 )  )
( or ( <= ( + X4 52 ) X6 )  ( <= ( + X6 87 ) X4 )  ( <= ( + Y4 22 ) Y6 )  ( <= ( + Y6 31 ) Y4 )  )
( or ( <= ( + X4 52 ) X7 )  ( <= ( + X7 7 ) X4 )  ( <= ( + Y4 22 ) Y7 )  ( <= ( + Y7 44 ) Y4 )  )
( or ( <= ( + X4 52 ) X8 )  ( <= ( + X8 70 ) X4 )  ( <= ( + Y4 22 ) Y8 )  ( <= ( + Y8 68 ) Y4 )  )
( or ( <= ( + X4 52 ) X9 )  ( <= ( + X9 80 ) X4 )  ( <= ( + Y4 22 ) Y9 )  ( <= ( + Y9 48 ) Y4 )  )
( or ( <= ( + X4 52 ) X10 )  ( <= ( + X10 24 ) X4 )  ( <= ( + Y4 22 ) Y10 )  ( <= ( + Y10 41 ) Y4 )  )
( or ( <= ( + X4 52 ) X11 )  ( <= ( + X11 20 ) X4 )  ( <= ( + Y4 22 ) Y11 )  ( <= ( + Y11 85 ) Y4 )  )
( or ( <= ( + X4 52 ) X12 )  ( <= ( + X12 26 ) X4 )  ( <= ( + Y4 22 ) Y12 )  ( <= ( + Y12 9 ) Y4 )  )
( or ( <= ( + X4 52 ) X13 )  ( <= ( + X13 78 ) X4 )  ( <= ( + Y4 22 ) Y13 )  ( <= ( + Y13 9 ) Y4 )  )
( or ( <= ( + X4 52 ) X14 )  ( <= ( + X14 50 ) X4 )  ( <= ( + Y4 22 ) Y14 )  ( <= ( + Y14 23 ) Y4 )  )
( or ( <= ( + X5 28 ) X6 )  ( <= ( + X6 87 ) X5 )  ( <= ( + Y5 49 ) Y6 )  ( <= ( + Y6 31 ) Y5 )  )
( or ( <= ( + X5 28 ) X7 )  ( <= ( + X7 7 ) X5 )  ( <= ( + Y5 49 ) Y7 )  ( <= ( + Y7 44 ) Y5 )  )
( or ( <= ( + X5 28 ) X8 )  ( <= ( + X8 70 ) X5 )  ( <= ( + Y5 49 ) Y8 )  ( <= ( + Y8 68 ) Y5 )  )
( or ( <= ( + X5 28 ) X9 )  ( <= ( + X9 80 ) X5 )  ( <= ( + Y5 49 ) Y9 )  ( <= ( + Y9 48 ) Y5 )  )
( or ( <= ( + X5 28 ) X10 )  ( <= ( + X10 24 ) X5 )  ( <= ( + Y5 49 ) Y10 )  ( <= ( + Y10 41 ) Y5 )  )
( or ( <= ( + X5 28 ) X11 )  ( <= ( + X11 20 ) X5 )  ( <= ( + Y5 49 ) Y11 )  ( <= ( + Y11 85 ) Y5 )  )
( or ( <= ( + X5 28 ) X12 )  ( <= ( + X12 26 ) X5 )  ( <= ( + Y5 49 ) Y12 )  ( <= ( + Y12 9 ) Y5 )  )
( or ( <= ( + X5 28 ) X13 )  ( <= ( + X13 78 ) X5 )  ( <= ( + Y5 49 ) Y13 )  ( <= ( + Y13 9 ) Y5 )  )
( or ( <= ( + X5 28 ) X14 )  ( <= ( + X14 50 ) X5 )  ( <= ( + Y5 49 ) Y14 )  ( <= ( + Y14 23 ) Y5 )  )
( or ( <= ( + X6 87 ) X7 )  ( <= ( + X7 7 ) X6 )  ( <= ( + Y6 31 ) Y7 )  ( <= ( + Y7 44 ) Y6 )  )
( or ( <= ( + X6 87 ) X8 )  ( <= ( + X8 70 ) X6 )  ( <= ( + Y6 31 ) Y8 )  ( <= ( + Y8 68 ) Y6 )  )
( or ( <= ( + X6 87 ) X9 )  ( <= ( + X9 80 ) X6 )  ( <= ( + Y6 31 ) Y9 )  ( <= ( + Y9 48 ) Y6 )  )
( or ( <= ( + X6 87 ) X10 )  ( <= ( + X10 24 ) X6 )  ( <= ( + Y6 31 ) Y10 )  ( <= ( + Y10 41 ) Y6 )  )
( or ( <= ( + X6 87 ) X11 )  ( <= ( + X11 20 ) X6 )  ( <= ( + Y6 31 ) Y11 )  ( <= ( + Y11 85 ) Y6 )  )
( or ( <= ( + X6 87 ) X12 )  ( <= ( + X12 26 ) X6 )  ( <= ( + Y6 31 ) Y12 )  ( <= ( + Y12 9 ) Y6 )  )
( or ( <= ( + X6 87 ) X13 )  ( <= ( + X13 78 ) X6 )  ( <= ( + Y6 31 ) Y13 )  ( <= ( + Y13 9 ) Y6 )  )
( or ( <= ( + X6 87 ) X14 )  ( <= ( + X14 50 ) X6 )  ( <= ( + Y6 31 ) Y14 )  ( <= ( + Y14 23 ) Y6 )  )
( or ( <= ( + X7 7 ) X8 )  ( <= ( + X8 70 ) X7 )  ( <= ( + Y7 44 ) Y8 )  ( <= ( + Y8 68 ) Y7 )  )
( or ( <= ( + X7 7 ) X9 )  ( <= ( + X9 80 ) X7 )  ( <= ( + Y7 44 ) Y9 )  ( <= ( + Y9 48 ) Y7 )  )
( or ( <= ( + X7 7 ) X10 )  ( <= ( + X10 24 ) X7 )  ( <= ( + Y7 44 ) Y10 )  ( <= ( + Y10 41 ) Y7 )  )
( or ( <= ( + X7 7 ) X11 )  ( <= ( + X11 20 ) X7 )  ( <= ( + Y7 44 ) Y11 )  ( <= ( + Y11 85 ) Y7 )  )
( or ( <= ( + X7 7 ) X12 )  ( <= ( + X12 26 ) X7 )  ( <= ( + Y7 44 ) Y12 )  ( <= ( + Y12 9 ) Y7 )  )
( or ( <= ( + X7 7 ) X13 )  ( <= ( + X13 78 ) X7 )  ( <= ( + Y7 44 ) Y13 )  ( <= ( + Y13 9 ) Y7 )  )
( or ( <= ( + X7 7 ) X14 )  ( <= ( + X14 50 ) X7 )  ( <= ( + Y7 44 ) Y14 )  ( <= ( + Y14 23 ) Y7 )  )
( or ( <= ( + X8 70 ) X9 )  ( <= ( + X9 80 ) X8 )  ( <= ( + Y8 68 ) Y9 )  ( <= ( + Y9 48 ) Y8 )  )
( or ( <= ( + X8 70 ) X10 )  ( <= ( + X10 24 ) X8 )  ( <= ( + Y8 68 ) Y10 )  ( <= ( + Y10 41 ) Y8 )  )
( or ( <= ( + X8 70 ) X11 )  ( <= ( + X11 20 ) X8 )  ( <= ( + Y8 68 ) Y11 )  ( <= ( + Y11 85 ) Y8 )  )
( or ( <= ( + X8 70 ) X12 )  ( <= ( + X12 26 ) X8 )  ( <= ( + Y8 68 ) Y12 )  ( <= ( + Y12 9 ) Y8 )  )
( or ( <= ( + X8 70 ) X13 )  ( <= ( + X13 78 ) X8 )  ( <= ( + Y8 68 ) Y13 )  ( <= ( + Y13 9 ) Y8 )  )
( or ( <= ( + X8 70 ) X14 )  ( <= ( + X14 50 ) X8 )  ( <= ( + Y8 68 ) Y14 )  ( <= ( + Y14 23 ) Y8 )  )
( or ( <= ( + X9 80 ) X10 )  ( <= ( + X10 24 ) X9 )  ( <= ( + Y9 48 ) Y10 )  ( <= ( + Y10 41 ) Y9 )  )
( or ( <= ( + X9 80 ) X11 )  ( <= ( + X11 20 ) X9 )  ( <= ( + Y9 48 ) Y11 )  ( <= ( + Y11 85 ) Y9 )  )
( or ( <= ( + X9 80 ) X12 )  ( <= ( + X12 26 ) X9 )  ( <= ( + Y9 48 ) Y12 )  ( <= ( + Y12 9 ) Y9 )  )
( or ( <= ( + X9 80 ) X13 )  ( <= ( + X13 78 ) X9 )  ( <= ( + Y9 48 ) Y13 )  ( <= ( + Y13 9 ) Y9 )  )
( or ( <= ( + X9 80 ) X14 )  ( <= ( + X14 50 ) X9 )  ( <= ( + Y9 48 ) Y14 )  ( <= ( + Y14 23 ) Y9 )  )
( or ( <= ( + X10 24 ) X11 )  ( <= ( + X11 20 ) X10 )  ( <= ( + Y10 41 ) Y11 )  ( <= ( + Y11 85 ) Y10 )  )
( or ( <= ( + X10 24 ) X12 )  ( <= ( + X12 26 ) X10 )  ( <= ( + Y10 41 ) Y12 )  ( <= ( + Y12 9 ) Y10 )  )
( or ( <= ( + X10 24 ) X13 )  ( <= ( + X13 78 ) X10 )  ( <= ( + Y10 41 ) Y13 )  ( <= ( + Y13 9 ) Y10 )  )
( or ( <= ( + X10 24 ) X14 )  ( <= ( + X14 50 ) X10 )  ( <= ( + Y10 41 ) Y14 )  ( <= ( + Y14 23 ) Y10 )  )
( or ( <= ( + X11 20 ) X12 )  ( <= ( + X12 26 ) X11 )  ( <= ( + Y11 85 ) Y12 )  ( <= ( + Y12 9 ) Y11 )  )
( or ( <= ( + X11 20 ) X13 )  ( <= ( + X13 78 ) X11 )  ( <= ( + Y11 85 ) Y13 )  ( <= ( + Y13 9 ) Y11 )  )
( or ( <= ( + X11 20 ) X14 )  ( <= ( + X14 50 ) X11 )  ( <= ( + Y11 85 ) Y14 )  ( <= ( + Y14 23 ) Y11 )  )
( or ( <= ( + X12 26 ) X13 )  ( <= ( + X13 78 ) X12 )  ( <= ( + Y12 9 ) Y13 )  ( <= ( + Y13 9 ) Y12 )  )
( or ( <= ( + X12 26 ) X14 )  ( <= ( + X14 50 ) X12 )  ( <= ( + Y12 9 ) Y14 )  ( <= ( + Y14 23 ) Y12 )  )
( or ( <= ( + X13 78 ) X14 )  ( <= ( + X14 50 ) X13 )  ( <= ( + Y13 9 ) Y14 )  ( <= ( + Y14 23 ) Y13 )  )
( >= X0 0)
( <= ( + X0 74) Z)
( >= Y0 0)
( <= ( + Y0 44 ) 193)
( >= X1 0)
( <= ( + X1 5) Z)
( >= Y1 0)
( <= ( + Y1 19 ) 193)
( >= X2 0)
( <= ( + X2 7) Z)
( >= Y2 0)
( <= ( + Y2 49 ) 193)
( >= X3 0)
( <= ( + X3 72) Z)
( >= Y3 0)
( <= ( + Y3 71 ) 193)
( >= X4 0)
( <= ( + X4 52) Z)
( >= Y4 0)
( <= ( + Y4 22 ) 193)
( >= X5 0)
( <= ( + X5 28) Z)
( >= Y5 0)
( <= ( + Y5 49 ) 193)
( >= X6 0)
( <= ( + X6 87) Z)
( >= Y6 0)
( <= ( + Y6 31 ) 193)
( >= X7 0)
( <= ( + X7 7) Z)
( >= Y7 0)
( <= ( + Y7 44 ) 193)
( >= X8 0)
( <= ( + X8 70) Z)
( >= Y8 0)
( <= ( + Y8 68 ) 193)
( >= X9 0)
( <= ( + X9 80) Z)
( >= Y9 0)
( <= ( + Y9 48 ) 193)
( >= X10 0)
( <= ( + X10 24) Z)
( >= Y10 0)
( <= ( + Y10 41 ) 193)
( >= X11 0)
( <= ( + X11 20) Z)
( >= Y11 0)
( <= ( + Y11 85 ) 193)
( >= X12 0)
( <= ( + X12 26) Z)
( >= Y12 0)
( <= ( + Y12 9 ) 193)
( >= X13 0)
( <= ( + X13 78) Z)
( >= Y13 0)
( <= ( + Y13 9 ) 193)
( >= X14 0)
( <= ( + X14 50) Z)
( >= Y14 0)
( <= ( + Y14 23 ) 193)
) )
(minimize Z)
(check-sat)
